num_features = 27;
num_usage_limits = 10;
num_plans = 4;
num_addons = 1;

features = ["posts","pages","publishTweets","saveAsAnAd","aiAssistant","workspaces","feedView","calendarView","gridView","listView","labels","mediaStorage","syncPreviousContent","publishedPostsStorage","archivedPostsStorage","noneApprovalWorkflows","optionalApprovalWorkflows","requiredApprovalWorkflows","multiLevelApprovalWorkflows","internalAndExternalCollaboration","versionHistory","helpCenter","prioritySupport","chatSupport","personalizedOnboarding","dedicatedAccountManager","paymentOptions"];
usage_limits = ["postsLimit","postsPerMonthLimit","socialMediaPagesLimit","tweetsLimit","workspacesLimit","numberOfLabels","mediaStorageCapacity","publishedPostsStorageLimit","archivedPostsStorageLimit","versionHistoryThreshold"];
plans = ["FREE","BASIC","PRO","ENTERPRISE"];
addons = ["extraWorkspace"];

plans_prices = [0,13,26,260];
addons_prices = [20];

linked_features = array2d(USAGE_LIMITS, FEATURES, [
    % postsLimit
    1,0,0,0,0,0,0,0,0,0,0,0,0,0,0,0,0,0,0,0,0,0,0,0,0,0,0,
    % postsPerMonthLimit
    1,0,0,0,0,0,0,0,0,0,0,0,0,0,0,0,0,0,0,0,0,0,0,0,0,0,0,
    % socialMediaPagesLimit
    0,1,0,0,0,0,0,0,0,0,0,0,0,0,0,0,0,0,0,0,0,0,0,0,0,0,0,
    % tweetsLimit
    0,0,1,0,0,0,0,0,0,0,0,0,0,0,0,0,0,0,0,0,0,0,0,0,0,0,0,
    % workspacesLimit
    0,0,0,0,0,1,0,0,0,0,0,0,0,0,0,0,0,0,0,0,0,0,0,0,0,0,0,
    % numberOfLabels
    0,0,0,0,0,0,0,0,0,0,1,0,0,0,0,0,0,0,0,0,0,0,0,0,0,0,0,
    % mediaStorageCapacity
    0,0,0,0,0,0,0,0,0,0,0,1,0,0,0,0,0,0,0,0,0,0,0,0,0,0,0,
    % publishedPostsStorageLimit
    0,0,0,0,0,0,0,0,0,0,0,0,0,1,0,0,0,0,0,0,0,0,0,0,0,0,0,
    % archivedPostsStorageLimit
    0,0,0,0,0,0,0,0,0,0,0,0,0,0,1,0,0,0,0,0,0,0,0,0,0,0,0,
    % versionHistoryThreshold
    0,0,0,0,0,0,0,0,0,0,0,0,0,0,0,0,0,0,0,0,1,0,0,0,0,0,0
]);

plans_features = array2d(PLANS, FEATURES, [
    % FREE
    1,1,1,1,1,1,1,1,1,1,1,1,1,1,1,1,1,1,1,1,1,1,0,0,0,0,1,
    % BASIC
    1,1,1,0,1,1,1,1,0,0,1,1,0,1,1,1,1,0,0,0,1,1,0,0,0,0,1,
    % PRO
    1,1,1,1,1,1,1,1,1,0,1,1,1,1,1,1,1,1,0,1,1,1,0,1,0,0,1,
    % ENTERPRISE
    1,1,1,1,1,1,1,1,1,1,1,1,1,1,1,1,1,1,1,1,1,1,1,1,1,1,1
]);
plans_usage_limits = array2d(PLANS, USAGE_LIMITS, [
    % FREE
    50,50,10,1,1,10000000,1000000,13,30,1000000,
    % BASIC
    1000000000000,10000000,4,1,1,5,10,13,30,7,
    % PRO
    1000000000000,10000000,10,1000000000000,1,10,50,13,30,30,
    % ENTERPRISE
    1000000000000,10000000,10,1000000000000,1,10000000,1000000,24,365,1000000
]);

addons_features = array2d(ADDONS, FEATURES, [
    % extraWorkspace
    0,0,0,0,0,0,0,0,0,0,0,0,0,0,0,0,0,0,0,0,0,0,0,0,0,0,0
]);
addons_usage_limits = array2d(ADDONS, USAGE_LIMITS, [
    % extraWorkspace
    0,0,0,0,0,0,0,0,0,0
]);
addons_usage_limits_extensions = array2d(ADDONS, USAGE_LIMITS, [
    % extraWorkspace
    0,0,0,0,1,0,0,0,0,0
]);
addons_available_for = array2d(ADDONS, PLANS, [
    % extraWorkspace
    0,1,1,0
]);
addons_depends_on = array2d(ADDONS, ADDONS, [
    % extraWorkspace
    0
]);
